c File: data_files/evolved_graphs/g3650.col
c
c Auto generated graph
c
p edge 100 1454
e 1 3
e 1 10
e 1 17
e 1 19
e 1 21
e 1 24
e 1 25
e 1 28
e 1 30
e 1 37
e 1 52
e 1 53
e 1 54
e 1 71
e 1 74
e 1 78
e 1 82
e 1 83
e 1 85
e 1 86
e 1 89
e 1 95
e 2 6
e 2 7
e 2 8
e 2 9
e 2 10
e 2 11
e 2 13
e 2 15
e 2 16
e 2 17
e 2 18
e 2 22
e 2 23
e 2 25
e 2 29
e 2 31
e 2 32
e 2 33
e 2 40
e 2 45
e 2 46
e 2 49
e 2 57
e 2 71
e 2 80
e 2 81
e 2 89
e 2 93
e 2 100
e 3 5
e 3 7
e 3 17
e 3 19
e 3 26
e 3 29
e 3 45
e 3 53
e 3 54
e 3 67
e 3 85
e 4 7
e 4 9
e 4 10
e 4 13
e 4 14
e 4 15
e 4 23
e 4 29
e 4 30
e 4 42
e 4 50
e 4 53
e 4 55
e 4 80
e 4 86
e 4 97
e 5 8
e 5 9
e 5 15
e 5 20
e 5 22
e 5 26
e 5 30
e 5 33
e 5 39
e 5 44
e 5 54
e 5 55
e 5 59
e 5 61
e 5 79
e 5 92
e 6 7
e 6 8
e 6 13
e 6 14
e 6 21
e 6 22
e 6 24
e 6 25
e 6 26
e 6 35
e 6 43
e 6 49
e 6 51
e 6 55
e 6 57
e 6 68
e 6 80
e 6 85
e 6 89
e 6 91
e 6 96
e 6 98
e 6 100
e 7 11
e 7 13
e 7 16
e 7 17
e 7 19
e 7 20
e 7 22
e 7 23
e 7 25
e 7 26
e 7 29
e 7 30
e 7 33
e 7 38
e 7 39
e 7 41
e 7 44
e 7 46
e 7 47
e 7 57
e 7 59
e 7 60
e 7 61
e 7 63
e 7 78
e 7 80
e 7 81
e 7 82
e 7 84
e 7 85
e 7 90
e 7 94
e 7 96
e 7 97
e 8 10
e 8 13
e 8 14
e 8 25
e 8 27
e 8 29
e 8 36
e 8 39
e 8 40
e 8 41
e 8 42
e 8 44
e 8 56
e 8 66
e 8 67
e 8 76
e 8 89
e 8 96
e 9 10
e 9 11
e 9 13
e 9 14
e 9 16
e 9 17
e 9 18
e 9 19
e 9 20
e 9 23
e 9 24
e 9 26
e 9 27
e 9 29
e 9 32
e 9 33
e 9 48
e 9 53
e 9 56
e 9 60
e 9 62
e 9 64
e 9 74
e 9 91
e 9 96
e 10 12
e 10 14
e 10 16
e 10 18
e 10 22
e 10 28
e 10 40
e 10 44
e 10 53
e 10 64
e 10 70
e 10 73
e 10 78
e 10 80
e 10 86
e 10 89
e 10 100
e 11 15
e 11 16
e 11 17
e 11 19
e 11 21
e 11 23
e 11 25
e 11 29
e 11 34
e 11 41
e 11 45
e 11 46
e 11 57
e 11 59
e 11 62
e 11 67
e 11 72
e 11 84
e 11 99
e 11 100
e 12 17
e 12 22
e 12 23
e 12 24
e 12 25
e 12 26
e 12 33
e 12 37
e 12 38
e 12 41
e 12 51
e 12 53
e 12 55
e 12 58
e 12 63
e 12 65
e 12 67
e 12 69
e 12 70
e 12 77
e 12 87
e 12 91
e 12 94
e 12 99
e 13 14
e 13 15
e 13 17
e 13 20
e 13 21
e 13 23
e 13 27
e 13 28
e 13 41
e 13 43
e 13 50
e 13 51
e 13 79
e 13 81
e 13 86
e 13 91
e 13 99
e 14 15
e 14 18
e 14 20
e 14 22
e 14 23
e 14 28
e 14 32
e 14 35
e 14 36
e 14 39
e 14 41
e 14 43
e 14 50
e 14 53
e 14 56
e 14 60
e 14 63
e 14 65
e 14 67
e 14 70
e 14 72
e 14 73
e 14 79
e 14 86
e 14 91
e 14 93
e 14 97
e 15 16
e 15 20
e 15 21
e 15 22
e 15 26
e 15 29
e 15 30
e 15 34
e 15 38
e 15 42
e 15 43
e 15 47
e 15 63
e 15 75
e 15 78
e 15 83
e 15 92
e 15 93
e 16 20
e 16 22
e 16 24
e 16 25
e 16 27
e 16 30
e 16 40
e 16 43
e 16 44
e 16 54
e 16 64
e 16 66
e 16 69
e 16 92
e 16 93
e 16 99
e 17 18
e 17 24
e 17 25
e 17 27
e 17 28
e 17 32
e 17 33
e 17 39
e 17 46
e 17 53
e 17 64
e 17 77
e 17 78
e 17 88
e 17 90
e 17 94
e 17 96
e 17 97
e 17 100
e 18 19
e 18 21
e 18 22
e 18 23
e 18 26
e 18 30
e 18 31
e 18 34
e 18 36
e 18 39
e 18 40
e 18 42
e 18 43
e 18 47
e 18 50
e 18 53
e 18 56
e 18 59
e 18 62
e 18 64
e 18 91
e 18 95
e 19 20
e 19 22
e 19 25
e 19 32
e 19 35
e 19 59
e 19 63
e 19 79
e 19 83
e 19 86
e 19 91
e 19 100
e 20 30
e 20 47
e 20 50
e 20 55
e 20 57
e 20 59
e 20 60
e 20 67
e 20 69
e 20 72
e 20 81
e 20 92
e 20 94
e 20 97
e 21 25
e 21 27
e 21 38
e 21 47
e 21 48
e 21 53
e 21 56
e 21 63
e 21 92
e 22 23
e 22 24
e 22 25
e 22 27
e 22 28
e 22 30
e 22 34
e 22 36
e 22 40
e 22 45
e 22 46
e 22 63
e 22 64
e 22 67
e 22 96
e 23 27
e 23 29
e 23 32
e 23 45
e 23 52
e 23 69
e 23 77
e 23 78
e 23 86
e 23 90
e 23 93
e 24 25
e 24 26
e 24 27
e 24 31
e 24 40
e 24 45
e 24 62
e 24 64
e 24 69
e 24 84
e 24 97
e 25 26
e 25 27
e 25 30
e 25 41
e 25 55
e 25 56
e 25 59
e 25 61
e 25 64
e 25 69
e 25 73
e 25 76
e 25 82
e 25 89
e 25 97
e 26 27
e 26 28
e 26 36
e 26 39
e 26 41
e 26 43
e 26 48
e 26 49
e 26 53
e 26 57
e 26 61
e 26 62
e 26 63
e 26 64
e 26 65
e 26 70
e 26 71
e 26 72
e 26 74
e 26 76
e 26 78
e 26 79
e 26 84
e 26 86
e 26 88
e 26 89
e 26 90
e 26 91
e 27 29
e 27 30
e 27 31
e 27 34
e 27 35
e 27 36
e 27 52
e 27 56
e 27 60
e 27 62
e 27 64
e 27 65
e 27 66
e 27 67
e 27 68
e 27 70
e 27 75
e 27 77
e 27 79
e 27 83
e 27 85
e 27 89
e 27 90
e 27 92
e 28 30
e 28 31
e 28 34
e 28 36
e 28 37
e 28 41
e 28 42
e 28 43
e 28 44
e 28 46
e 28 47
e 28 50
e 28 56
e 28 57
e 28 60
e 28 63
e 28 66
e 28 67
e 28 68
e 28 71
e 28 75
e 28 77
e 28 80
e 28 81
e 28 82
e 28 87
e 28 92
e 29 33
e 29 36
e 29 44
e 29 46
e 29 47
e 29 48
e 29 49
e 29 55
e 29 61
e 29 62
e 29 63
e 29 64
e 29 66
e 29 67
e 29 74
e 29 75
e 29 77
e 29 80
e 29 82
e 29 83
e 29 86
e 29 89
e 29 90
e 29 99
e 30 32
e 30 34
e 30 35
e 30 36
e 30 38
e 30 40
e 30 44
e 30 46
e 30 51
e 30 53
e 30 54
e 30 55
e 30 58
e 30 60
e 30 62
e 30 63
e 30 65
e 30 67
e 30 68
e 30 69
e 30 75
e 30 76
e 30 81
e 30 82
e 30 83
e 30 84
e 30 85
e 30 86
e 30 87
e 30 90
e 30 91
e 30 92
e 31 32
e 31 33
e 31 34
e 31 38
e 31 39
e 31 41
e 31 42
e 31 43
e 31 44
e 31 48
e 31 50
e 31 51
e 31 53
e 31 57
e 31 58
e 31 61
e 31 63
e 31 66
e 31 67
e 31 68
e 31 70
e 31 72
e 31 73
e 31 75
e 31 81
e 31 85
e 31 88
e 31 91
e 31 93
e 32 33
e 32 34
e 32 35
e 32 48
e 32 49
e 32 51
e 32 54
e 32 55
e 32 58
e 32 62
e 32 66
e 32 67
e 32 71
e 32 73
e 32 74
e 32 76
e 32 78
e 32 80
e 32 81
e 32 86
e 32 89
e 32 90
e 33 35
e 33 36
e 33 37
e 33 39
e 33 42
e 33 44
e 33 45
e 33 48
e 33 52
e 33 53
e 33 56
e 33 60
e 33 66
e 33 68
e 33 70
e 33 71
e 33 76
e 33 77
e 33 78
e 33 79
e 33 81
e 33 87
e 33 92
e 34 35
e 34 38
e 34 42
e 34 43
e 34 44
e 34 47
e 34 50
e 34 51
e 34 53
e 34 55
e 34 57
e 34 58
e 34 59
e 34 64
e 34 65
e 34 77
e 34 79
e 34 81
e 34 84
e 34 86
e 34 87
e 34 88
e 34 90
e 34 93
e 35 38
e 35 40
e 35 41
e 35 42
e 35 43
e 35 45
e 35 47
e 35 51
e 35 58
e 35 62
e 35 67
e 35 69
e 35 71
e 35 73
e 35 76
e 35 79
e 35 84
e 35 86
e 35 90
e 35 92
e 36 39
e 36 42
e 36 43
e 36 47
e 36 48
e 36 49
e 36 51
e 36 55
e 36 56
e 36 57
e 36 58
e 36 60
e 36 62
e 36 64
e 36 67
e 36 68
e 36 70
e 36 71
e 36 72
e 36 75
e 36 80
e 36 81
e 36 82
e 36 85
e 36 86
e 36 87
e 36 88
e 36 89
e 36 90
e 36 91
e 36 96
e 37 41
e 37 43
e 37 44
e 37 54
e 37 55
e 37 56
e 37 57
e 37 58
e 37 62
e 37 69
e 37 70
e 37 71
e 37 74
e 37 77
e 37 80
e 37 84
e 37 85
e 37 89
e 37 90
e 38 42
e 38 44
e 38 47
e 38 49
e 38 53
e 38 55
e 38 56
e 38 58
e 38 61
e 38 63
e 38 64
e 38 68
e 38 69
e 38 70
e 38 73
e 38 74
e 38 76
e 38 77
e 38 82
e 38 83
e 38 89
e 38 91
e 38 92
e 38 100
e 39 41
e 39 42
e 39 44
e 39 47
e 39 51
e 39 52
e 39 53
e 39 54
e 39 55
e 39 56
e 39 57
e 39 60
e 39 62
e 39 65
e 39 67
e 39 70
e 39 73
e 39 78
e 39 81
e 39 86
e 39 88
e 39 89
e 39 90
e 40 42
e 40 45
e 40 48
e 40 49
e 40 52
e 40 53
e 40 54
e 40 55
e 40 58
e 40 59
e 40 60
e 40 62
e 40 63
e 40 66
e 40 67
e 40 70
e 40 73
e 40 74
e 40 75
e 40 76
e 40 77
e 40 78
e 40 79
e 40 83
e 40 84
e 40 86
e 40 90
e 40 91
e 40 92
e 40 93
e 40 100
e 41 43
e 41 44
e 41 47
e 41 48
e 41 50
e 41 54
e 41 55
e 41 59
e 41 60
e 41 62
e 41 64
e 41 66
e 41 68
e 41 70
e 41 72
e 41 78
e 41 79
e 41 84
e 41 86
e 41 87
e 41 88
e 41 89
e 41 91
e 41 100
e 42 43
e 42 44
e 42 46
e 42 49
e 42 52
e 42 53
e 42 60
e 42 62
e 42 65
e 42 69
e 42 71
e 42 73
e 42 75
e 42 77
e 42 81
e 42 83
e 42 84
e 42 87
e 42 91
e 42 94
e 43 44
e 43 45
e 43 47
e 43 53
e 43 54
e 43 55
e 43 56
e 43 57
e 43 59
e 43 60
e 43 62
e 43 63
e 43 64
e 43 67
e 43 70
e 43 72
e 43 73
e 43 77
e 43 84
e 43 85
e 43 86
e 43 89
e 43 90
e 43 94
e 43 95
e 44 47
e 44 50
e 44 51
e 44 53
e 44 56
e 44 57
e 44 63
e 44 64
e 44 65
e 44 66
e 44 69
e 44 72
e 44 74
e 44 76
e 44 79
e 44 81
e 44 82
e 44 86
e 44 87
e 44 88
e 44 89
e 44 97
e 44 98
e 45 46
e 45 48
e 45 51
e 45 52
e 45 56
e 45 59
e 45 61
e 45 62
e 45 65
e 45 66
e 45 68
e 45 69
e 45 73
e 45 74
e 45 75
e 45 81
e 45 83
e 45 85
e 45 86
e 45 88
e 45 91
e 45 92
e 46 47
e 46 49
e 46 55
e 46 57
e 46 58
e 46 59
e 46 60
e 46 62
e 46 63
e 46 65
e 46 68
e 46 69
e 46 71
e 46 73
e 46 74
e 46 76
e 46 77
e 46 78
e 46 83
e 46 85
e 46 86
e 46 89
e 46 92
e 46 93
e 47 50
e 47 51
e 47 52
e 47 53
e 47 59
e 47 65
e 47 66
e 47 67
e 47 69
e 47 71
e 47 73
e 47 74
e 47 75
e 47 76
e 47 77
e 47 79
e 47 81
e 47 86
e 47 87
e 47 89
e 48 51
e 48 52
e 48 53
e 48 56
e 48 57
e 48 59
e 48 62
e 48 63
e 48 66
e 48 67
e 48 68
e 48 69
e 48 74
e 48 77
e 48 79
e 48 81
e 48 82
e 48 87
e 48 88
e 48 89
e 48 92
e 49 53
e 49 57
e 49 58
e 49 61
e 49 64
e 49 66
e 49 68
e 49 70
e 49 72
e 49 77
e 49 78
e 49 81
e 49 82
e 49 83
e 49 85
e 49 88
e 49 90
e 49 91
e 49 92
e 49 100
e 50 54
e 50 55
e 50 56
e 50 59
e 50 61
e 50 63
e 50 64
e 50 67
e 50 68
e 50 69
e 50 72
e 50 73
e 50 74
e 50 76
e 50 77
e 50 83
e 50 85
e 50 89
e 50 91
e 50 92
e 50 97
e 50 98
e 50 100
e 51 56
e 51 57
e 51 58
e 51 62
e 51 70
e 51 72
e 51 74
e 51 75
e 51 80
e 51 83
e 51 84
e 51 85
e 51 86
e 51 88
e 51 89
e 51 96
e 51 98
e 52 55
e 52 56
e 52 57
e 52 59
e 52 60
e 52 63
e 52 64
e 52 65
e 52 67
e 52 69
e 52 70
e 52 71
e 52 73
e 52 74
e 52 75
e 52 78
e 52 79
e 52 82
e 52 83
e 52 87
e 52 88
e 52 90
e 52 91
e 53 55
e 53 56
e 53 57
e 53 58
e 53 65
e 53 67
e 53 70
e 53 74
e 53 76
e 53 77
e 53 85
e 53 88
e 53 89
e 53 92
e 53 93
e 54 56
e 54 59
e 54 60
e 54 62
e 54 63
e 54 64
e 54 68
e 54 69
e 54 70
e 54 75
e 54 80
e 54 81
e 54 82
e 54 84
e 54 85
e 54 89
e 54 91
e 54 100
e 55 58
e 55 59
e 55 60
e 55 62
e 55 63
e 55 67
e 55 68
e 55 70
e 55 71
e 55 77
e 55 78
e 55 80
e 55 83
e 55 85
e 55 86
e 55 91
e 55 99
e 56 61
e 56 62
e 56 63
e 56 64
e 56 67
e 56 70
e 56 71
e 56 73
e 56 75
e 56 79
e 56 80
e 56 82
e 56 86
e 56 92
e 56 97
e 57 62
e 57 63
e 57 66
e 57 76
e 57 79
e 57 81
e 57 84
e 57 87
e 57 91
e 57 95
e 58 62
e 58 63
e 58 66
e 58 67
e 58 72
e 58 73
e 58 80
e 58 90
e 58 91
e 58 92
e 59 64
e 59 67
e 59 68
e 59 71
e 59 72
e 59 74
e 59 75
e 59 78
e 59 81
e 59 83
e 59 87
e 59 90
e 59 92
e 59 94
e 59 97
e 60 61
e 60 64
e 60 65
e 60 68
e 60 69
e 60 70
e 60 72
e 60 73
e 60 76
e 60 78
e 60 84
e 60 87
e 60 88
e 60 91
e 60 94
e 60 96
e 60 97
e 61 63
e 61 66
e 61 67
e 61 71
e 61 72
e 61 74
e 61 81
e 61 82
e 61 85
e 61 86
e 61 87
e 61 88
e 61 89
e 61 90
e 61 91
e 61 92
e 61 95
e 61 99
e 62 65
e 62 66
e 62 72
e 62 75
e 62 76
e 62 79
e 62 80
e 62 82
e 62 83
e 62 85
e 62 87
e 62 89
e 63 64
e 63 67
e 63 68
e 63 73
e 63 74
e 63 75
e 63 76
e 63 79
e 63 81
e 63 85
e 63 87
e 63 88
e 63 89
e 63 90
e 63 100
e 64 68
e 64 71
e 64 73
e 64 75
e 64 77
e 64 78
e 64 80
e 64 81
e 64 83
e 64 89
e 64 90
e 64 93
e 64 98
e 65 68
e 65 72
e 65 73
e 65 77
e 65 82
e 65 88
e 65 90
e 65 91
e 66 69
e 66 72
e 66 76
e 66 77
e 66 78
e 66 81
e 66 82
e 66 86
e 66 88
e 66 98
e 67 68
e 67 69
e 67 77
e 67 78
e 67 79
e 67 80
e 67 83
e 67 89
e 67 91
e 68 72
e 68 75
e 68 80
e 68 81
e 68 85
e 68 89
e 68 90
e 69 73
e 69 74
e 69 75
e 69 76
e 69 79
e 69 80
e 69 89
e 69 94
e 69 99
e 70 71
e 70 72
e 70 73
e 70 78
e 70 80
e 70 81
e 70 89
e 70 91
e 70 92
e 71 72
e 71 76
e 71 79
e 71 80
e 71 81
e 71 85
e 71 89
e 71 91
e 72 74
e 72 75
e 72 78
e 72 79
e 72 85
e 72 86
e 72 92
e 72 98
e 73 74
e 73 75
e 73 80
e 73 81
e 73 82
e 73 83
e 73 86
e 73 87
e 73 89
e 73 90
e 73 91
e 73 93
e 74 76
e 74 78
e 74 84
e 74 85
e 74 88
e 74 91
e 74 96
e 74 97
e 75 78
e 75 80
e 75 81
e 75 82
e 75 83
e 75 84
e 75 86
e 75 87
e 75 88
e 75 91
e 75 92
e 76 77
e 76 79
e 76 80
e 76 82
e 76 84
e 76 89
e 76 94
e 76 98
e 77 78
e 77 80
e 77 84
e 77 87
e 77 96
e 78 79
e 78 80
e 78 81
e 78 85
e 78 90
e 78 91
e 78 93
e 78 94
e 78 98
e 78 100
e 79 83
e 79 87
e 79 89
e 79 90
e 79 91
e 79 92
e 80 82
e 80 83
e 80 84
e 80 86
e 80 89
e 80 92
e 81 84
e 81 90
e 81 91
e 82 87
e 82 88
e 82 90
e 82 91
e 83 86
e 83 92
e 83 97
e 84 85
e 84 86
e 84 87
e 84 89
e 84 90
e 84 91
e 84 92
e 85 86
e 85 97
e 85 100
e 86 87
e 86 90
e 86 95
e 86 99
e 87 88
e 87 93
e 88 89
e 88 90
e 88 98
e 89 91
e 90 91
e 90 97
e 90 98
e 91 99
e 92 96
e 93 96
e 94 96
e 94 98
e 95 97
e 97 99
e 99 100
